(set-logic LIA)
(synth-fun next ((brake Int) (distance Int) (speed Int) (throttle Int) (ignition Bool) (time Int) ) Int
	((Start Int) (Var Int) (StartBool Bool))
	((Start Int (
				 6
				 (ite StartBool Start Start)))

	(Var Int (
			 0
			 1
			 2
			 3
			 8
			 525
			 1419
			 brake
			 distance
			 speed
			 throttle
			 time
			 (+ Var Var)						
			 (- Var Var)						
			 (* Var Var)))

	(StartBool Bool (
				 	 ignition
					(= Var Var)						
					(>= Var Var)						
					(<= Var Var)						
					(and StartBool StartBool)			
					(or  StartBool StartBool)				
					(not StartBool)))))

(constraint (= (next 1 2 9 0 true 1548 ) 6))
(constraint (= (next 1 3 9 0 true 841 ) 6))
(constraint (= (next 1 3 6 0 true 1867 ) 6))

(check-synth)
